
List of user-set options:

                                    Name   Value                used
                           compl_inf_tol = 1                     yes
                         constr_viol_tol = 1                     yes
                            dual_inf_tol = 1000                  yes
                           linear_solver = ma97                  yes
                              ma86_small = 1e-30                  no
                                  ma86_u = 0.0001                 no
                              ma97_order = best                  yes
                              ma97_small = 1e-30                 yes
                            ma97_switch1 = at_start              yes
                            ma97_switch2 = od_hd_reuse           yes
                                  ma97_u = 1e-06                 yes
                               ma97_umax = 0.5                   yes
                                max_iter = 1000                  yes
                    max_refinement_steps = 20                    yes
                    min_refinement_steps = 5                     yes
                                 mu_init = 1e-06                 yes
           mu_superlinear_decrease_power = 1.25                  yes
                   nlp_scaling_min_value = 1e-08                 yes
                        option_file_name = Preset_Case_936_pf.opt  yes
                             output_file = ./tmp/Preset_Case_936_pf.output  yes
                      print_user_options = yes                   yes
        required_infeasibility_reduction = 1                      no
                                     tol = 1e-08                 yes
                   warm_start_bound_frac = 1e-20                 yes
                   warm_start_bound_push = 1e-20                 yes
                   warm_start_init_point = yes                   yes
              warm_start_mult_bound_push = 1e-20                 yes
                warm_start_mult_init_max = 1e+40                 yes
             warm_start_slack_bound_frac = 1e-20                 yes
             warm_start_slack_bound_push = 1e-20                 yes

******************************************************************************
This program contains Ipopt, a library for large-scale nonlinear optimization.
 Ipopt is released as open source code under the Eclipse Public License (EPL).
         For more information visit http://projects.coin-or.org/Ipopt
******************************************************************************

This is Ipopt version 3.12.10, running with linear solver ma97.

Number of nonzeros in equality constraint Jacobian...:   123442
Number of nonzeros in inequality constraint Jacobian.:      213
Number of nonzeros in Lagrangian Hessian.............:    49069

Total number of variables............................:    31591
                     variables with only lower bounds:    12912
                variables with lower and upper bounds:    15130
                     variables with only upper bounds:        0
Total number of equality constraints.................:    31483
Total number of inequality constraints...............:       25
        inequality constraints with only lower bounds:        4
   inequality constraints with lower and upper bounds:        0
        inequality constraints with only upper bounds:       21

iter    objective    inf_pr   inf_du lg(mu)  ||d||  lg(rg) alpha_du alpha_pr  ls
   0 -5.4204393e+00 4.75e-03 1.02e+00  -6.0 0.00e+00    -  0.00e+00 0.00e+00   0
   1 -5.4199424e+00 1.55e+00 1.21e+01  -6.0 4.28e+05    -  7.32e-05 4.47e-04h  2
   2 -5.4200049e+00 1.55e+00 3.95e+01  -6.0 3.79e+01  -4.0 1.70e-01 5.65e-04h  1
   3 -5.6769448e+00 4.52e+00 1.46e+03  -6.0 4.76e+03    -  7.72e-02 3.23e-01h  1
   4 -5.7125694e+00 4.43e+00 1.38e+03  -6.0 2.68e+03    -  1.83e-02 6.28e-02h  1
   5 -5.9120798e+00 1.13e+01 1.57e+03  -6.0 2.45e+03    -  5.72e-01 3.78e-01h  1
   6 -6.0916282e+00 1.99e+01 1.26e+03  -6.0 1.60e+03    -  1.88e-01 6.40e-01h  1
   7 -6.0961668e+00 1.43e+01 8.89e+02  -6.0 7.49e+02    -  3.97e-01 3.34e-01h  1
   8 -6.0867005e+00 1.01e+01 6.13e+02  -6.0 5.56e+02    -  2.50e-01 3.29e-01h  1
   9 -6.0773966e+00 3.98e+00 1.45e+06  -6.0 3.54e+02    -  1.83e-01 7.12e-01h  1
iter    objective    inf_pr   inf_du lg(mu)  ||d||  lg(rg) alpha_du alpha_pr  ls
  10 -6.0748138e+00 2.85e+00 6.78e+05  -6.0 1.46e+02  -4.5 2.14e-03 2.83e-01h  1
  11 -6.0713157e+00 9.75e-01 8.95e+04  -6.0 4.85e+01  -5.0 3.18e-02 6.58e-01h  1
  12 -6.0617182e+00 4.13e-03 1.78e+05  -6.0 5.82e+00  -5.4 6.68e-01 1.00e+00h  1
  13 -6.0630090e+00 8.56e-03 3.05e+04  -6.0 1.52e+01  -5.9 7.81e-01 1.00e+00h  1
  14 -6.0649001e+00 4.05e-02 3.99e+03  -6.0 3.63e+01  -6.4 8.26e-01 1.00e+00h  1
  15 -6.0672893e+00 1.76e-01 1.52e+01  -6.0 7.59e+01  -6.9 1.00e+00 1.00e+00h  1
  16 -6.0713405e+00 7.19e-01 3.34e+00  -6.0 1.54e+02  -7.3 8.22e-01 1.00e+00h  1
  17 -6.0724558e+00 1.36e-01 7.68e-01  -6.0 6.81e+01  -6.9 1.00e+00 1.00e+00h  1
  18 -6.0731564e+00 2.00e-02 1.01e-01  -6.0 2.60e+01  -6.5 1.00e+00 1.00e+00h  1
  19 -6.0753994e+00 1.85e-01 2.98e+00  -6.0 8.56e+01  -7.0 1.00e+00 1.00e+00h  1
iter    objective    inf_pr   inf_du lg(mu)  ||d||  lg(rg) alpha_du alpha_pr  ls
  20 -6.0770358e+00 2.94e-02 1.92e+00  -6.0 3.57e+01  -6.5 1.00e+00 1.00e+00h  1
  21 -6.0829777e+00 6.09e-01 2.40e+01  -6.0 1.84e+02  -7.0 8.14e-01 1.00e+00h  1
  22 -6.0993442e+00 1.81e+00 8.11e+01  -6.0 9.12e+02  -7.5 2.74e-01 3.03e-01h  1
  23 -6.1313680e+00 6.35e+00 1.91e+04  -6.0 2.71e+03    -  3.89e-02 5.29e-01h  1
  24 -6.1339205e+00 4.45e+00 1.13e+04  -6.0 5.08e+02  -7.1 8.80e-01 2.97e-01h  1
  25 -6.1426508e+00 2.68e+00 4.12e+04  -6.0 6.60e+02    -  1.00e+00 6.11e-01h  1
  26 -6.1453982e+00 2.13e+00 4.96e+05  -6.0 6.50e+02    -  4.79e-02 2.28e-01h  1
  27 -6.1456376e+00 2.13e+00 4.95e+05  -6.0 4.26e+03  -7.5 4.35e-02 9.95e-04h  1
  28 -6.1518188e+00 1.67e+00 3.68e+05  -6.0 6.06e+02    -  1.82e-01 3.98e-01f  1
  29 -6.1557127e+00 1.02e+00 1.48e+05  -6.0 4.73e+02    -  5.51e-01 6.86e-01h  1
iter    objective    inf_pr   inf_du lg(mu)  ||d||  lg(rg) alpha_du alpha_pr  ls
  30 -6.1628629e+00 1.01e+00 3.96e+05  -6.0 3.05e+02  -8.0 1.81e-01 3.87e-01h  1
  31r-6.1628629e+00 1.01e+00 1.00e+03   0.0 0.00e+00  -7.6 0.00e+00 1.86e-07R  2
  32r-6.1746745e+00 1.01e+00 1.03e+03   0.0 1.01e+04    -  9.58e-06 1.74e-06f  1
  33 -6.1741959e+00 9.78e-01 9.73e+05  -6.0 8.13e+00    -  6.33e-01 3.01e-02h  1
  34 -6.1679328e+00 5.83e-01 1.33e+07  -6.0 8.09e+00    -  3.01e-02 4.05e-01h  1
  35 -6.1583199e+00 1.15e-03 2.51e+02  -6.0 4.92e+00    -  4.39e-01 1.00e+00h  1
  36 -6.1585732e+00 6.53e-05 1.34e+01  -6.0 9.50e-01    -  9.80e-01 9.42e-01h  1
  37 -6.1588537e+00 6.06e-05 2.07e+02  -6.0 1.08e+01    -  9.66e-01 7.07e-02f  1
  38 -6.1614012e+00 1.74e-01 2.07e+02  -6.0 8.41e+03  -8.1 2.42e-02 7.90e-03f  1
  39 -6.1657046e+00 1.26e-01 7.71e+03  -6.0 6.60e+01    -  2.78e-03 8.95e-01h  1
iter    objective    inf_pr   inf_du lg(mu)  ||d||  lg(rg) alpha_du alpha_pr  ls
  40 -6.1645818e+00 3.25e-02 1.56e+01  -6.0 3.43e+01    -  9.59e-01 1.00e+00h  1
  41 -6.1659409e+00 2.44e+00 1.53e+02  -6.0 3.84e+02  -7.6 9.58e-02 1.00e+00h  1
  42 -6.1693578e+00 1.59e+00 9.23e+01  -6.0 2.35e+02  -7.2 4.16e-01 3.67e-01h  1
  43 -6.2052373e+00 1.38e+01 1.56e+02  -6.0 1.18e+03  -7.7 2.54e-01 1.00e+00h  1
  44 -6.2351301e+00 8.37e+00 7.29e+02  -6.0 3.20e+03    -  1.97e-01 1.00e+00h  1
  45 -6.2272514e+00 6.88e+00 6.14e+02  -6.0 1.54e+02  -6.4 9.92e-01 1.80e-01h  1
  46 -6.2039949e+00 1.33e+00 3.11e+02  -6.0 2.72e+02  -6.8 5.91e-01 1.00e+00h  1
  47 -6.2039995e+00 1.33e+00 3.11e+02  -6.0 2.88e+02  -6.4 2.02e-01 2.25e-05h  1
  48 -6.2310051e+00 2.48e-01 6.53e+01  -6.0 1.12e+03    -  8.74e-01 1.00e+00f  1
  49 -6.2239715e+00 9.15e-02 2.23e+01  -6.0 2.93e+01  -6.9 1.00e+00 6.57e-01h  1
iter    objective    inf_pr   inf_du lg(mu)  ||d||  lg(rg) alpha_du alpha_pr  ls
  50 -6.2205390e+00 1.61e-02 4.64e-01  -6.0 6.73e+01    -  8.18e-01 1.00e+00h  1
  51 -6.2204158e+00 2.14e-04 7.26e-04  -6.0 4.04e+00    -  1.00e+00 1.00e+00h  1
  52 -6.2204163e+00 3.55e-08 1.04e-06  -6.0 2.93e-02    -  1.00e+00 1.00e+00h  1
  53 -6.2204865e+00 8.02e-03 5.87e+01  -7.5 3.25e+01    -  9.54e-01 7.50e-01h  1
  54 -6.2204915e+00 1.84e-03 1.08e+01  -7.5 8.45e+00    -  1.00e+00 8.50e-01h  1
  55 -6.2204911e+00 1.83e-05 8.30e-03  -7.5 1.27e+00    -  1.00e+00 1.00e+00h  1
  56 -6.2204911e+00 2.83e-10 1.55e-09  -7.5 2.05e-03    -  1.00e+00 1.00e+00h  1
  57 -6.2204926e+00 1.02e-05 6.66e-01  -9.0 1.05e+00    -  9.22e-01 8.50e-01h  1
  58 -6.2204929e+00 3.19e-07 2.35e-01  -9.0 1.59e-01    -  9.40e-01 1.00e+00f  1
  59 -6.2204929e+00 4.40e-10 2.17e-08  -9.0 4.76e-05    -  1.00e+00 1.00e+00h  1
iter    objective    inf_pr   inf_du lg(mu)  ||d||  lg(rg) alpha_du alpha_pr  ls
  60 -6.2204929e+00 3.20e-10 7.41e-10  -9.0 1.55e-05    -  1.00e+00 1.00e+00h  1

Number of Iterations....: 60

                                   (scaled)                 (unscaled)
Objective...............:  -4.8597600523879461e+00   -6.2204928670565707e+00
Dual infeasibility......:   7.4110023307544743e-10    9.4860829833657264e-10
Constraint violation....:   3.1985593980290300e-10    3.1985593980290300e-10
Complementarity.........:   9.3822298972078867e-10    1.2009254268426094e-09
Overall NLP error.......:   9.3822298972078867e-10    1.2009254268426094e-09


Number of objective function evaluations             = 65
Number of objective gradient evaluations             = 61
Number of equality constraint evaluations            = 65
Number of inequality constraint evaluations          = 65
Number of equality constraint Jacobian evaluations   = 62
Number of inequality constraint Jacobian evaluations = 62
Number of Lagrangian Hessian evaluations             = 60
Total CPU secs in IPOPT (w/o function evaluations)   =    163.628
Total CPU secs in NLP function evaluations           =      2.381

EXIT: Optimal Solution Found.
